17
9
0 13 15 8 1 9 6 4 10 2 11 5 16 12 3 14
6 10 8 15 5 1 2 9
12 3 13 8 1 14 11 2 0 15 10 4
12 14 1 0 15
8 3 1 7 11 0 13 6 12 2
16 0 9 11 12 14 4 3 8 5
6 4 11 0 15 14 3 13 5 10 12 7 2
16 0 5 2 3 4 6 10 13 8 7 1 9 11 12 14 15
8 14 1 15 6 5 11 2 7 10 13
